
&projwfc
   prefix='CuO_slab',
   outdir='./tmp',
   filpdos= 'CuO_slab_pdos.dat'
/
